NAME
ROWS
 N  OBJ
 G  c1
 G  c2
 G  c3
 G  c4
 G  c5
 G  c6
 G  c7
 G  c8
 G  c9
 G  c10
 G  c11
 G  c12
 G  c13
 G  c14
 G  c15
 G  c16
 G  c17
 G  c18
 G  c19
 G  c20
 G  c21
 G  c22
 G  c23
 G  c24
 G  c25
 G  c26
 G  c27
 G  c28
 G  c29
 G  c30
 G  c31
 G  c32
 G  c33
 G  c34
 G  c35
 G  c36
 G  c37
 G  c38
 G  c39
 G  c40
 G  c41
 G  c42
 G  c43
 G  c44
 G  c45
 G  c46
 G  c47
 G  c48
 G  c49
 G  c50
 G  c51
 G  c52
 G  c53
 G  c54
 G  c55
 G  c56
 G  c57
 G  c58
 G  c59
 G  c60
 G  c61
 G  c62
 G  c63
 G  c64
 G  c65
 G  c66
 G  c67
 G  c68
 G  c69
 G  c70
 G  c71
 G  c72
 G  c73
 G  c74
 G  c75
 G  c76
 G  c77
 G  c78
 G  c79
 G  c80
COLUMNS
    MARKER    'MARKER'                 'INTORG'
    x[1]      c1        1
    x[1]      c8        1
    x[1]      c35       1
    x[1]      c43       1
    x[1]      c48       1
    x[1]      c53       1
    x[1]      c73       1
    x[1]      OBJ       1
    x[2]      c2        1
    x[2]      c13       1
    x[2]      c15       1
    x[2]      c44       1
    x[2]      c52       1
    x[2]      c69       1
    x[2]      OBJ       1
    x[3]      c3        1
    x[3]      c6        1
    x[3]      c27       1
    x[3]      c43       1
    x[3]      c49       1
    x[3]      c63       1
    x[3]      c70       1
    x[3]      c80       1
    x[3]      OBJ       1
    x[4]      c4        1
    x[4]      c25       1
    x[4]      c35       1
    x[4]      c44       1
    x[4]      c62       1
    x[4]      c64       1
    x[4]      c65       1
    x[4]      c71       1
    x[4]      c77       1
    x[4]      OBJ       1
    x[5]      c5        1
    x[5]      c12       1
    x[5]      c19       1
    x[5]      c21       1
    x[5]      c40       1
    x[5]      c48       1
    x[5]      c52       1
    x[5]      c57       1
    x[5]      c60       1
    x[5]      c71       1
    x[5]      c80       1
    x[5]      OBJ       1
    x[6]      c3        1
    x[6]      c6        1
    x[6]      c16       1
    x[6]      c42       1
    x[6]      c46       1
    x[6]      c72       1
    x[6]      c73       1
    x[6]      c77       1
    x[6]      c80       1
    x[6]      OBJ       1
    x[7]      c7        1
    x[7]      c19       1
    x[7]      c24       1
    x[7]      c36       1
    x[7]      c58       1
    x[7]      c60       1
    x[7]      c66       1
    x[7]      OBJ       1
    x[8]      c1        1
    x[8]      c8        1
    x[8]      c12       1
    x[8]      c23       1
    x[8]      c28       1
    x[8]      c29       1
    x[8]      c43       1
    x[8]      c48       1
    x[8]      c54       1
    x[8]      c78       1
    x[8]      c80       1
    x[8]      OBJ       1
    x[9]      c9        1
    x[9]      c10       1
    x[9]      c23       1
    x[9]      c30       1
    x[9]      c40       1
    x[9]      c62       1
    x[9]      c64       1
    x[9]      OBJ       1
    x[10]     c9        1
    x[10]     c10       1
    x[10]     c16       1
    x[10]     c18       1
    x[10]     c23       1
    x[10]     c34       1
    x[10]     c41       1
    x[10]     c63       1
    x[10]     c80       1
    x[10]     OBJ       1
    x[11]     c11       1
    x[11]     c27       1
    x[11]     c34       1
    x[11]     c35       1
    x[11]     c48       1
    x[11]     c66       1
    x[11]     OBJ       1
    x[12]     c5        1
    x[12]     c8        1
    x[12]     c12       1
    x[12]     c28       1
    x[12]     c31       1
    x[12]     c39       1
    x[12]     c43       1
    x[12]     c46       1
    x[12]     c52       1
    x[12]     c55       1
    x[12]     c64       1
    x[12]     c67       1
    x[12]     c70       1
    x[12]     c78       1
    x[12]     OBJ       1
    x[13]     c2        1
    x[13]     c13       1
    x[13]     c26       1
    x[13]     c34       1
    x[13]     c46       1
    x[13]     c50       1
    x[13]     c78       1
    x[13]     OBJ       1
    x[14]     c14       1
    x[14]     c24       1
    x[14]     c28       1
    x[14]     c43       1
    x[14]     OBJ       1
    x[15]     c2        1
    x[15]     c15       1
    x[15]     c17       1
    x[15]     c25       1
    x[15]     c37       1
    x[15]     c40       1
    x[15]     c44       1
    x[15]     c51       1
    x[15]     c68       1
    x[15]     c69       1
    x[15]     OBJ       1
    x[16]     c6        1
    x[16]     c10       1
    x[16]     c16       1
    x[16]     c23       1
    x[16]     c32       1
    x[16]     c33       1
    x[16]     c40       1
    x[16]     c50       1
    x[16]     c77       1
    x[16]     OBJ       1
    x[17]     c15       1
    x[17]     c17       1
    x[17]     c33       1
    x[17]     c37       1
    x[17]     c44       1
    x[17]     c57       1
    x[17]     c60       1
    x[17]     c63       1
    x[17]     c67       1
    x[17]     OBJ       1
    x[18]     c10       1
    x[18]     c18       1
    x[18]     c21       1
    x[18]     c29       1
    x[18]     c39       1
    x[18]     c60       1
    x[18]     c71       1
    x[18]     c73       1
    x[18]     OBJ       1
    x[19]     c5        1
    x[19]     c7        1
    x[19]     c19       1
    x[19]     c26       1
    x[19]     c29       1
    x[19]     c31       1
    x[19]     c58       1
    x[19]     c60       1
    x[19]     c63       1
    x[19]     c68       1
    x[19]     OBJ       1
    x[20]     c20       1
    x[20]     c43       1
    x[20]     c55       1
    x[20]     c75       1
    x[20]     c79       1
    x[20]     OBJ       1
    x[21]     c5        1
    x[21]     c18       1
    x[21]     c21       1
    x[21]     c38       1
    x[21]     c54       1
    x[21]     c56       1
    x[21]     c57       1
    x[21]     c62       1
    x[21]     c63       1
    x[21]     c64       1
    x[21]     c76       1
    x[21]     OBJ       1
    x[22]     c22       1
    x[22]     c25       1
    x[22]     c34       1
    x[22]     c42       1
    x[22]     c49       1
    x[22]     c60       1
    x[22]     c66       1
    x[22]     c71       1
    x[22]     c72       1
    x[22]     c73       1
    x[22]     c74       1
    x[22]     OBJ       1
    x[23]     c8        1
    x[23]     c9        1
    x[23]     c10       1
    x[23]     c16       1
    x[23]     c23       1
    x[23]     c27       1
    x[23]     c33       1
    x[23]     c61       1
    x[23]     c67       1
    x[23]     c78       1
    x[23]     c79       1
    x[23]     OBJ       1
    x[24]     c7        1
    x[24]     c14       1
    x[24]     c24       1
    x[24]     c31       1
    x[24]     c34       1
    x[24]     c46       1
    x[24]     c51       1
    x[24]     c52       1
    x[24]     c69       1
    x[24]     c74       1
    x[24]     c75       1
    x[24]     c79       1
    x[24]     OBJ       1
    x[25]     c4        1
    x[25]     c15       1
    x[25]     c22       1
    x[25]     c25       1
    x[25]     c37       1
    x[25]     c54       1
    x[25]     c70       1
    x[25]     OBJ       1
    x[26]     c13       1
    x[26]     c19       1
    x[26]     c26       1
    x[26]     c30       1
    x[26]     c36       1
    x[26]     c39       1
    x[26]     c49       1
    x[26]     c64       1
    x[26]     OBJ       1
    x[27]     c3        1
    x[27]     c11       1
    x[27]     c23       1
    x[27]     c27       1
    x[27]     c28       1
    x[27]     c37       1
    x[27]     c46       1
    x[27]     c47       1
    x[27]     c53       1
    x[27]     OBJ       1
    x[28]     c8        1
    x[28]     c12       1
    x[28]     c14       1
    x[28]     c27       1
    x[28]     c28       1
    x[28]     c31       1
    x[28]     c32       1
    x[28]     c50       1
    x[28]     c51       1
    x[28]     c56       1
    x[28]     c58       1
    x[28]     c67       1
    x[28]     c73       1
    x[28]     OBJ       1
    x[29]     c8        1
    x[29]     c18       1
    x[29]     c19       1
    x[29]     c29       1
    x[29]     c33       1
    x[29]     c35       1
    x[29]     c51       1
    x[29]     c69       1
    x[29]     c77       1
    x[29]     OBJ       1
    x[30]     c9        1
    x[30]     c26       1
    x[30]     c30       1
    x[30]     c42       1
    x[30]     c43       1
    x[30]     c51       1
    x[30]     c66       1
    x[30]     c69       1
    x[30]     OBJ       1
    x[31]     c12       1
    x[31]     c19       1
    x[31]     c24       1
    x[31]     c28       1
    x[31]     c31       1
    x[31]     c34       1
    x[31]     c55       1
    x[31]     c66       1
    x[31]     c68       1
    x[31]     c76       1
    x[31]     OBJ       1
    x[32]     c16       1
    x[32]     c28       1
    x[32]     c32       1
    x[32]     c46       1
    x[32]     c54       1
    x[32]     c69       1
    x[32]     c75       1
    x[32]     OBJ       1
    x[33]     c16       1
    x[33]     c17       1
    x[33]     c23       1
    x[33]     c29       1
    x[33]     c33       1
    x[33]     c60       1
    x[33]     c68       1
    x[33]     c77       1
    x[33]     OBJ       1
    x[34]     c10       1
    x[34]     c11       1
    x[34]     c13       1
    x[34]     c22       1
    x[34]     c24       1
    x[34]     c31       1
    x[34]     c34       1
    x[34]     c37       1
    x[34]     c44       1
    x[34]     c49       1
    x[34]     c57       1
    x[34]     c61       1
    x[34]     c80       1
    x[34]     OBJ       1
    x[35]     c1        1
    x[35]     c4        1
    x[35]     c11       1
    x[35]     c29       1
    x[35]     c35       1
    x[35]     c60       1
    x[35]     OBJ       1
    x[36]     c7        1
    x[36]     c26       1
    x[36]     c36       1
    x[36]     c43       1
    x[36]     c45       1
    x[36]     c48       1
    x[36]     c55       1
    x[36]     c59       1
    x[36]     c68       1
    x[36]     OBJ       1
    x[37]     c15       1
    x[37]     c17       1
    x[37]     c25       1
    x[37]     c27       1
    x[37]     c34       1
    x[37]     c37       1
    x[37]     c40       1
    x[37]     c41       1
    x[37]     c44       1
    x[37]     c45       1
    x[37]     c53       1
    x[37]     c66       1
    x[37]     OBJ       1
    x[38]     c21       1
    x[38]     c38       1
    x[38]     c39       1
    x[38]     c48       1
    x[38]     c50       1
    x[38]     c59       1
    x[38]     OBJ       1
    x[39]     c12       1
    x[39]     c18       1
    x[39]     c26       1
    x[39]     c38       1
    x[39]     c39       1
    x[39]     c48       1
    x[39]     c60       1
    x[39]     c63       1
    x[39]     c68       1
    x[39]     OBJ       1
    x[40]     c5        1
    x[40]     c9        1
    x[40]     c15       1
    x[40]     c16       1
    x[40]     c37       1
    x[40]     c40       1
    x[40]     c59       1
    x[40]     c63       1
    x[40]     c67       1
    x[40]     c73       1
    x[40]     OBJ       1
    x[41]     c10       1
    x[41]     c37       1
    x[41]     c41       1
    x[41]     c48       1
    x[41]     c72       1
    x[41]     c74       1
    x[41]     c78       1
    x[41]     OBJ       1
    x[42]     c6        1
    x[42]     c22       1
    x[42]     c30       1
    x[42]     c42       1
    x[42]     c46       1
    x[42]     c52       1
    x[42]     c58       1
    x[42]     c60       1
    x[42]     c69       1
    x[42]     OBJ       1
    x[43]     c1        1
    x[43]     c3        1
    x[43]     c8        1
    x[43]     c12       1
    x[43]     c14       1
    x[43]     c20       1
    x[43]     c30       1
    x[43]     c36       1
    x[43]     c43       1
    x[43]     c78       1
    x[43]     c80       1
    x[43]     OBJ       1
    x[44]     c2        1
    x[44]     c4        1
    x[44]     c15       1
    x[44]     c17       1
    x[44]     c34       1
    x[44]     c37       1
    x[44]     c44       1
    x[44]     c50       1
    x[44]     c64       1
    x[44]     c71       1
    x[44]     c73       1
    x[44]     c76       1
    x[44]     OBJ       1
    x[45]     c36       1
    x[45]     c37       1
    x[45]     c45       1
    x[45]     c63       1
    x[45]     OBJ       1
    x[46]     c6        1
    x[46]     c12       1
    x[46]     c13       1
    x[46]     c24       1
    x[46]     c27       1
    x[46]     c32       1
    x[46]     c42       1
    x[46]     c46       1
    x[46]     c50       1
    x[46]     c61       1
    x[46]     c71       1
    x[46]     c76       1
    x[46]     OBJ       1
    x[47]     c27       1
    x[47]     c47       1
    x[47]     c59       1
    x[47]     c66       1
    x[47]     c73       1
    x[47]     c78       1
    x[47]     OBJ       1
    x[48]     c1        1
    x[48]     c5        1
    x[48]     c8        1
    x[48]     c11       1
    x[48]     c36       1
    x[48]     c38       1
    x[48]     c39       1
    x[48]     c41       1
    x[48]     c48       1
    x[48]     c49       1
    x[48]     c68       1
    x[48]     c70       1
    x[48]     c80       1
    x[48]     OBJ       1
    x[49]     c3        1
    x[49]     c22       1
    x[49]     c26       1
    x[49]     c34       1
    x[49]     c48       1
    x[49]     c49       1
    x[49]     c78       1
    x[49]     OBJ       1
    x[50]     c13       1
    x[50]     c16       1
    x[50]     c28       1
    x[50]     c38       1
    x[50]     c44       1
    x[50]     c46       1
    x[50]     c50       1
    x[50]     c71       1
    x[50]     c79       1
    x[50]     OBJ       1
    x[51]     c15       1
    x[51]     c24       1
    x[51]     c28       1
    x[51]     c29       1
    x[51]     c30       1
    x[51]     c51       1
    x[51]     c60       1
    x[51]     c64       1
    x[51]     c66       1
    x[51]     c78       1
    x[51]     OBJ       1
    x[52]     c2        1
    x[52]     c5        1
    x[52]     c12       1
    x[52]     c24       1
    x[52]     c42       1
    x[52]     c52       1
    x[52]     c55       1
    x[52]     OBJ       1
    x[53]     c1        1
    x[53]     c27       1
    x[53]     c37       1
    x[53]     c53       1
    x[53]     c55       1
    x[53]     c60       1
    x[53]     c66       1
    x[53]     c72       1
    x[53]     OBJ       1
    x[54]     c8        1
    x[54]     c21       1
    x[54]     c25       1
    x[54]     c32       1
    x[54]     c54       1
    x[54]     c64       1
    x[54]     c80       1
    x[54]     OBJ       1
    x[55]     c12       1
    x[55]     c20       1
    x[55]     c31       1
    x[55]     c36       1
    x[55]     c52       1
    x[55]     c53       1
    x[55]     c55       1
    x[55]     c64       1
    x[55]     c70       1
    x[55]     OBJ       1
    x[56]     c21       1
    x[56]     c28       1
    x[56]     c56       1
    x[56]     c78       1
    x[56]     c80       1
    x[56]     OBJ       1
    x[57]     c5        1
    x[57]     c17       1
    x[57]     c21       1
    x[57]     c34       1
    x[57]     c57       1
    x[57]     c60       1
    x[57]     c66       1
    x[57]     OBJ       1
    x[58]     c7        1
    x[58]     c19       1
    x[58]     c28       1
    x[58]     c42       1
    x[58]     c58       1
    x[58]     c69       1
    x[58]     c80       1
    x[58]     OBJ       1
    x[59]     c36       1
    x[59]     c38       1
    x[59]     c40       1
    x[59]     c47       1
    x[59]     c59       1
    x[59]     c61       1
    x[59]     c69       1
    x[59]     OBJ       1
    x[60]     c5        1
    x[60]     c7        1
    x[60]     c17       1
    x[60]     c18       1
    x[60]     c19       1
    x[60]     c22       1
    x[60]     c33       1
    x[60]     c35       1
    x[60]     c39       1
    x[60]     c42       1
    x[60]     c51       1
    x[60]     c53       1
    x[60]     c57       1
    x[60]     c60       1
    x[60]     c64       1
    x[60]     OBJ       1
    x[61]     c23       1
    x[61]     c34       1
    x[61]     c46       1
    x[61]     c59       1
    x[61]     c61       1
    x[61]     c62       1
    x[61]     c64       1
    x[61]     c68       1
    x[61]     c72       1
    x[61]     OBJ       1
    x[62]     c4        1
    x[62]     c9        1
    x[62]     c21       1
    x[62]     c61       1
    x[62]     c62       1
    x[62]     c68       1
    x[62]     c74       1
    x[62]     OBJ       1
    x[63]     c3        1
    x[63]     c10       1
    x[63]     c17       1
    x[63]     c19       1
    x[63]     c21       1
    x[63]     c39       1
    x[63]     c40       1
    x[63]     c45       1
    x[63]     c63       1
    x[63]     c77       1
    x[63]     c79       1
    x[63]     OBJ       1
    x[64]     c4        1
    x[64]     c9        1
    x[64]     c12       1
    x[64]     c21       1
    x[64]     c26       1
    x[64]     c44       1
    x[64]     c51       1
    x[64]     c54       1
    x[64]     c55       1
    x[64]     c60       1
    x[64]     c61       1
    x[64]     c64       1
    x[64]     c71       1
    x[64]     OBJ       1
    x[65]     c4        1
    x[65]     c65       1
    x[65]     c72       1
    x[65]     c75       1
    x[65]     OBJ       1
    x[66]     c7        1
    x[66]     c11       1
    x[66]     c22       1
    x[66]     c30       1
    x[66]     c31       1
    x[66]     c37       1
    x[66]     c47       1
    x[66]     c51       1
    x[66]     c53       1
    x[66]     c57       1
    x[66]     c66       1
    x[66]     c72       1
    x[66]     c73       1
    x[66]     OBJ       1
    x[67]     c12       1
    x[67]     c17       1
    x[67]     c23       1
    x[67]     c28       1
    x[67]     c40       1
    x[67]     c67       1
    x[67]     c70       1
    x[67]     c79       1
    x[67]     OBJ       1
    x[68]     c15       1
    x[68]     c19       1
    x[68]     c31       1
    x[68]     c33       1
    x[68]     c36       1
    x[68]     c39       1
    x[68]     c48       1
    x[68]     c61       1
    x[68]     c62       1
    x[68]     c68       1
    x[68]     c79       1
    x[68]     OBJ       1
    x[69]     c2        1
    x[69]     c15       1
    x[69]     c24       1
    x[69]     c29       1
    x[69]     c30       1
    x[69]     c32       1
    x[69]     c42       1
    x[69]     c58       1
    x[69]     c59       1
    x[69]     c69       1
    x[69]     c80       1
    x[69]     OBJ       1
    x[70]     c3        1
    x[70]     c12       1
    x[70]     c25       1
    x[70]     c48       1
    x[70]     c55       1
    x[70]     c67       1
    x[70]     c70       1
    x[70]     c75       1
    x[70]     c80       1
    x[70]     OBJ       1
    x[71]     c4        1
    x[71]     c5        1
    x[71]     c18       1
    x[71]     c22       1
    x[71]     c44       1
    x[71]     c46       1
    x[71]     c50       1
    x[71]     c64       1
    x[71]     c71       1
    x[71]     c74       1
    x[71]     c79       1
    x[71]     OBJ       1
    x[72]     c6        1
    x[72]     c22       1
    x[72]     c41       1
    x[72]     c53       1
    x[72]     c61       1
    x[72]     c65       1
    x[72]     c66       1
    x[72]     c72       1
    x[72]     OBJ       1
    x[73]     c1        1
    x[73]     c6        1
    x[73]     c18       1
    x[73]     c22       1
    x[73]     c28       1
    x[73]     c40       1
    x[73]     c44       1
    x[73]     c47       1
    x[73]     c66       1
    x[73]     c73       1
    x[73]     OBJ       1
    x[74]     c22       1
    x[74]     c24       1
    x[74]     c41       1
    x[74]     c62       1
    x[74]     c71       1
    x[74]     c74       1
    x[74]     OBJ       1
    x[75]     c20       1
    x[75]     c24       1
    x[75]     c32       1
    x[75]     c65       1
    x[75]     c70       1
    x[75]     c75       1
    x[75]     OBJ       1
    x[76]     c21       1
    x[76]     c31       1
    x[76]     c44       1
    x[76]     c46       1
    x[76]     c76       1
    x[76]     c77       1
    x[76]     OBJ       1
    x[77]     c4        1
    x[77]     c6        1
    x[77]     c16       1
    x[77]     c29       1
    x[77]     c33       1
    x[77]     c63       1
    x[77]     c76       1
    x[77]     c77       1
    x[77]     OBJ       1
    x[78]     c8        1
    x[78]     c12       1
    x[78]     c13       1
    x[78]     c23       1
    x[78]     c41       1
    x[78]     c43       1
    x[78]     c47       1
    x[78]     c49       1
    x[78]     c51       1
    x[78]     c56       1
    x[78]     c78       1
    x[78]     OBJ       1
    x[79]     c20       1
    x[79]     c23       1
    x[79]     c24       1
    x[79]     c50       1
    x[79]     c63       1
    x[79]     c67       1
    x[79]     c68       1
    x[79]     c71       1
    x[79]     c79       1
    x[79]     OBJ       1
    x[80]     c3        1
    x[80]     c5        1
    x[80]     c6        1
    x[80]     c8        1
    x[80]     c10       1
    x[80]     c34       1
    x[80]     c43       1
    x[80]     c48       1
    x[80]     c54       1
    x[80]     c56       1
    x[80]     c58       1
    x[80]     c69       1
    x[80]     c70       1
    x[80]     c80       1
    x[80]     OBJ       1
    MARKER    'MARKER'                 'INTEND'
RHS
    rhs       c1        1
    rhs       c2        1
    rhs       c3        1
    rhs       c4        1
    rhs       c5        1
    rhs       c6        1
    rhs       c7        1
    rhs       c8        1
    rhs       c9        1
    rhs       c10       1
    rhs       c11       1
    rhs       c12       1
    rhs       c13       1
    rhs       c14       1
    rhs       c15       1
    rhs       c16       1
    rhs       c17       1
    rhs       c18       1
    rhs       c19       1
    rhs       c20       1
    rhs       c21       1
    rhs       c22       1
    rhs       c23       1
    rhs       c24       1
    rhs       c25       1
    rhs       c26       1
    rhs       c27       1
    rhs       c28       1
    rhs       c29       1
    rhs       c30       1
    rhs       c31       1
    rhs       c32       1
    rhs       c33       1
    rhs       c34       1
    rhs       c35       1
    rhs       c36       1
    rhs       c37       1
    rhs       c38       1
    rhs       c39       1
    rhs       c40       1
    rhs       c41       1
    rhs       c42       1
    rhs       c43       1
    rhs       c44       1
    rhs       c45       1
    rhs       c46       1
    rhs       c47       1
    rhs       c48       1
    rhs       c49       1
    rhs       c50       1
    rhs       c51       1
    rhs       c52       1
    rhs       c53       1
    rhs       c54       1
    rhs       c55       1
    rhs       c56       1
    rhs       c57       1
    rhs       c58       1
    rhs       c59       1
    rhs       c60       1
    rhs       c61       1
    rhs       c62       1
    rhs       c63       1
    rhs       c64       1
    rhs       c65       1
    rhs       c66       1
    rhs       c67       1
    rhs       c68       1
    rhs       c69       1
    rhs       c70       1
    rhs       c71       1
    rhs       c72       1
    rhs       c73       1
    rhs       c74       1
    rhs       c75       1
    rhs       c76       1
    rhs       c77       1
    rhs       c78       1
    rhs       c79       1
    rhs       c80       1
RANGES
BOUNDS
 BV bounds    x[1]
 BV bounds    x[2]
 BV bounds    x[3]
 BV bounds    x[4]
 BV bounds    x[5]
 BV bounds    x[6]
 BV bounds    x[7]
 BV bounds    x[8]
 BV bounds    x[9]
 BV bounds    x[10]
 BV bounds    x[11]
 BV bounds    x[12]
 BV bounds    x[13]
 BV bounds    x[14]
 BV bounds    x[15]
 BV bounds    x[16]
 BV bounds    x[17]
 BV bounds    x[18]
 BV bounds    x[19]
 BV bounds    x[20]
 BV bounds    x[21]
 BV bounds    x[22]
 BV bounds    x[23]
 BV bounds    x[24]
 BV bounds    x[25]
 BV bounds    x[26]
 BV bounds    x[27]
 BV bounds    x[28]
 BV bounds    x[29]
 BV bounds    x[30]
 BV bounds    x[31]
 BV bounds    x[32]
 BV bounds    x[33]
 BV bounds    x[34]
 BV bounds    x[35]
 BV bounds    x[36]
 BV bounds    x[37]
 BV bounds    x[38]
 BV bounds    x[39]
 BV bounds    x[40]
 BV bounds    x[41]
 BV bounds    x[42]
 BV bounds    x[43]
 BV bounds    x[44]
 BV bounds    x[45]
 BV bounds    x[46]
 BV bounds    x[47]
 BV bounds    x[48]
 BV bounds    x[49]
 BV bounds    x[50]
 BV bounds    x[51]
 BV bounds    x[52]
 BV bounds    x[53]
 BV bounds    x[54]
 BV bounds    x[55]
 BV bounds    x[56]
 BV bounds    x[57]
 BV bounds    x[58]
 BV bounds    x[59]
 BV bounds    x[60]
 BV bounds    x[61]
 BV bounds    x[62]
 BV bounds    x[63]
 BV bounds    x[64]
 BV bounds    x[65]
 BV bounds    x[66]
 BV bounds    x[67]
 BV bounds    x[68]
 BV bounds    x[69]
 BV bounds    x[70]
 BV bounds    x[71]
 BV bounds    x[72]
 BV bounds    x[73]
 BV bounds    x[74]
 BV bounds    x[75]
 BV bounds    x[76]
 BV bounds    x[77]
 BV bounds    x[78]
 BV bounds    x[79]
 BV bounds    x[80]
ENDATA
